NAME : G100_1211_01
COMMENT : Generated CVRP instance (n=100)
TYPE : CVRP
DIMENSION : 101
EDGE_WEIGHT_TYPE : EUC_2D
CAPACITY : 3
NODE_COORD_SECTION
1    940  964 
2    47   480 
3    174  679 
4    267  459 
5    127  436 
6    524  520 
7    88   484 
8    282  477 
9    74   576 
10   372  462 
11   321  453 
12   35   419 
13   325  386 
14   25   436 
15   74   505 
16   351  533 
17   334  352 
18   40   445 
19   346  573 
20   129  541 
21   381  576 
22   39   403 
23   17   510 
24   410  520 
25   320  538 
26   251  350 
27   373  366 
28   265  467 
29   250  515 
30   379  464 
31   126  619 
32   535  312 
33   337  284 
34   392  348 
35   103  547 
36   129  465 
37   484  394 
38   323  385 
39   275  464 
40   23   499 
41   72   577 
42   292  309 
43   380  376 
44   109  517 
45   25   490 
46   403  414 
47   284  286 
48   412  389 
49   259  296 
50   368  404 
51   277  173 
52   60   434 
53   83   500 
54   21   461 
55   446  332 
56   48   551 
57   278  339 
58   24   569 
59   470  353 
60   200  340 
61   215  664 
62   3    393 
63   5    454 
64   70   529 
65   382  343 
66   373  459 
67   268  394 
68   265  450 
69   74   437 
70   106  469 
71   32   550 
72   353  163 
73   32   440 
74   396  317 
75   240  661 
76   341  390 
77   300  465 
78   338  330 
79   111  449 
80   356  472 
81   111  458 
82   23   464 
83   321  435 
84   264  410 
85   80   589 
86   302  174 
87   142  494 
88   364  311 
89   54   564 
90   246  441 
91   89   576 
92   276  286 
93   360  563 
94   8    599 
95   328  387 
96   29   512 
97   360  428 
98   286  369 
99   259  501 
100  368  362 
101  406  443 
DEMAND_SECTION
1    0   
2    1   
3    1   
4    1   
5    1   
6    1   
7    1   
8    1   
9    1   
10   1   
11   1   
12   1   
13   1   
14   1   
15   1   
16   1   
17   1   
18   1   
19   1   
20   1   
21   1   
22   1   
23   1   
24   1   
25   1   
26   1   
27   1   
28   1   
29   1   
30   1   
31   1   
32   1   
33   1   
34   1   
35   1   
36   1   
37   1   
38   1   
39   1   
40   1   
41   1   
42   1   
43   1   
44   1   
45   1   
46   1   
47   1   
48   1   
49   1   
50   1   
51   1   
52   1   
53   1   
54   1   
55   1   
56   1   
57   1   
58   1   
59   1   
60   1   
61   1   
62   1   
63   1   
64   1   
65   1   
66   1   
67   1   
68   1   
69   1   
70   1   
71   1   
72   1   
73   1   
74   1   
75   1   
76   1   
77   1   
78   1   
79   1   
80   1   
81   1   
82   1   
83   1   
84   1   
85   1   
86   1   
87   1   
88   1   
89   1   
90   1   
91   1   
92   1   
93   1   
94   1   
95   1   
96   1   
97   1   
98   1   
99   1   
100  1   
101  1   
DEPOT_SECTION
1
-1
EOF
